p cnf 94 298
-4 2 0
-4 -3 0
-2 3 4 0
6 4 0
6 -5 0
-4 5 -6 0
8 3 0
8 7 0
-3 -7 -8 0
-8 5 -9 0
8 -5 -9 0
-8 -5 9 0
8 5 9 0
10 -6 0
10 -9 0
6 9 -10 0
1 10 -11 0
-1 -10 -11 0
1 -10 11 0
-1 10 11 0
-14 -5 0
-14 13 0
5 -13 14 0
-14 5 -15 0
14 -5 -15 0
-14 -5 15 0
14 5 15 0
19 17 0
19 18 0
-17 -18 -19 0
16 19 -20 0
-16 -19 -20 0
16 -19 20 0
-16 19 20 0
-21 20 0
-21 9 0
-20 -9 21 0
-21 20 -22 0
21 -20 -22 0
-21 -20 22 0
21 20 22 0
15 -22 -23 0
-15 22 -23 0
15 22 23 0
-15 -22 23 0
-24 -12 0
-24 23 0
12 -23 24 0
25 -11 0
25 -24 0
11 24 -25 0
-26 -18 0
-26 -18 0
18 26 0
26 7 -27 0
-26 -7 -27 0
26 -7 27 0
-26 7 27 0
-28 20 0
-28 -27 0
-20 27 28 0
-29 14 0
-29 -3 0
-14 3 29 0
-26 17 -30 0
26 -17 -30 0
-26 -17 30 0
26 17 30 0
29 -30 -31 0
-29 30 -31 0
29 30 31 0
-29 -30 31 0
-28 31 -32 0
28 -31 -32 0
-28 -31 32 0
28 31 32 0
33 -26 0
33 -32 0
26 32 -33 0
34 8 0
34 -19 0
-8 19 -34 0
-36 2 0
-36 -35 0
-2 35 36 0
-37 8 0
-37 36 0
-8 -36 37 0
-38 -34 0
-38 -37 0
34 37 38 0
39 14 -40 0
-39 -14 -40 0
39 -14 40 0
-39 14 40 0
-41 -38 0
-41 -40 0
38 40 41 0
43 42 0
43 30 0
-42 -30 -43 0
-16 -43 -44 0
16 43 -44 0
-16 43 44 0
16 -43 44 0
45 -41 0
45 44 0
41 -44 -45 0
-33 45 -46 0
33 -45 -46 0
-33 -45 46 0
33 45 46 0
-47 25 0
-47 -46 0
-25 46 47 0
-49 48 0
-49 -27 0
-48 27 49 0
-49 -35 -50 0
49 35 -50 0
-49 35 50 0
49 -35 50 0
-51 -8 0
-51 -48 0
8 48 51 0
52 -50 0
52 51 0
50 -51 -52 0
53 -36 0
53 -3 0
36 3 -53 0
54 -53 0
54 26 0
53 -26 -54 0
-2 5 -55 0
2 -5 -55 0
-2 -5 55 0
2 5 55 0
56 -55 0
56 -53 0
55 53 -56 0
-54 56 -57 0
54 -56 -57 0
-54 -56 57 0
54 56 57 0
52 57 -58 0
-52 -57 -58 0
52 -57 58 0
-52 57 58 0
-26 -18 -59 0
26 18 -59 0
-26 18 59 0
26 -18 59 0
-60 -17 0
-60 2 0
17 -2 60 0
-61 27 0
-61 14 0
-27 -14 61 0
-62 -61 0
-62 53 0
61 -53 62 0
-63 60 0
-63 62 0
-60 -62 63 0
-64 -59 0
-64 63 0
59 -63 64 0
65 42 0
65 -35 0
-42 35 -65 0
-66 -55 0
-66 -65 0
55 65 66 0
-67 -42 0
-67 30 0
42 -30 67 0
68 -66 0
68 67 0
66 -67 -68 0
-64 -68 -69 0
64 68 -69 0
-64 68 69 0
64 -68 69 0
70 -12 0
70 -13 0
12 13 -70 0
22 -70 -71 0
-22 70 -71 0
22 70 71 0
-22 -70 71 0
-72 69 0
-72 -71 0
-69 71 72 0
-73 28 0
-73 -12 0
-28 12 73 0
75 73 0
75 -74 0
-73 74 -75 0
8 3 -76 0
-8 -3 -76 0
8 -3 76 0
-8 3 76 0
75 76 -77 0
-75 -76 -77 0
75 -76 77 0
-75 76 77 0
78 -39 0
78 -34 0
39 34 -78 0
79 -55 0
79 -60 0
55 60 -79 0
-80 79 0
-80 1 0
-79 -1 80 0
-81 80 0
-81 -9 0
-80 9 81 0
82 -48 0
82 -26 0
48 26 -82 0
83 6 0
83 -82 0
-6 82 -83 0
-81 -83 -84 0
81 83 -84 0
-81 83 84 0
81 -83 84 0
85 78 0
85 84 0
-78 -84 -85 0
86 -30 0
86 26 0
30 -26 -86 0
-87 -85 0
-87 86 0
85 -86 87 0
-89 88 0
-89 -2 0
-88 2 89 0
-90 -87 0
-90 -89 0
87 89 90 0
-91 77 0
-91 -90 0
-77 90 91 0
92 72 0
92 91 0
-72 -91 -92 0
-93 -58 0
-93 92 0
58 -92 93 0
-47 -93 -94 0
47 93 -94 0
-47 93 94 0
47 -93 94 0
-45 15 0
79 45 28 67 0
88 64 -17 76 0
75 22 -9 8 -4 0
-15 -13 5 14 0
-61 78 34 -18 22 0
-27 -38 0
53 -66 -60 -30 0
18 83 76 0
74 -72 0
3 62 -16 28 -92 0
-22 12 69 0
-82 -36 -78 -64 -51 0
4 -46 0
2 69 -56 0
-62 -52 0
-40 -46 87 0
-15 25 80 53 0
71 -36 24 5 0
41 -8 65 -36 56 0
-51 83 41 0
25 -61 0
45 -67 69 30 53 -22 0
-65 60 57 64 -39 0
82 0
-28 15 22 0
23 29 -44 0
82 -20 9 -58 -42 0
14 -56 60 0
-94 -40 91 -19 -16 78 0
-35 -41 34 -31 0
37 77 53 0
-76 28 84 -57 36 0
-60 -88 -3 0
-13 82 -63 0
35 43 23 -93 0
-47 -81 -80 69 19 0
-63 41 0
-58 92 4 -22 60 0
94 0
